Route #1: 52 61 58 45 36 2 48 57 26 42 4 31 16 38 43 3 7
Route #2: 
Route #3: 21 50 41 46 11 39 6 47 54 9 22 28 37 30 55 24 5 23 33 27 44 60
Route #4: 12 53 32 29 59 20 34 25 8
Route #5: 14 18 13 51
Route #6: 
Route #7: 15 56
Route #8: 17 19 49 35
Route #9: 10 1 40
cost 1474.118194854302
